
(set-logic HORN)
(declare-fun Z_357 () Int)
(declare-fun S_125 (Int) Int)
(declare-fun diseqInt (Int Int) Bool)
(declare-fun projS_121 (Int Int) Bool)
(declare-fun isZ_125 (Int) Bool)
(declare-fun isS_125 (Int) Bool)
(assert (forall ((x_3502 Int))
	(projS_121 x_3502 (S_125 x_3502))))
(assert (isZ_125 Z_357))
(assert (forall ((x_3504 Int))
	(isS_125 (S_125 x_3504))))
(assert (forall ((x_3505 Int))
	(diseqInt Z_357 (S_125 x_3505))))
(assert (forall ((x_3506 Int))
	(diseqInt (S_125 x_3506) Z_357)))
(assert (forall ((x_3507 Int) (x_3508 Int))
	(=> (diseqInt x_3507 x_3508) (diseqInt (S_125 x_3507) (S_125 x_3508)))))
(declare-datatypes ((list_59 0)) (((nil_59) (cons_59 (head_118 Int) (tail_118 list_59)))))
(declare-fun diseqlist_59 (list_59 list_59) Bool)
(declare-fun head_119 (Int list_59) Bool)
(declare-fun tail_119 (list_59 list_59) Bool)
(declare-fun isnil_59 (list_59) Bool)
(declare-fun iscons_59 (list_59) Bool)
(assert (forall ((x_3510 Int) (x_3511 list_59))
	(head_119 x_3510 (cons_59 x_3510 x_3511))))
(assert (forall ((x_3510 Int) (x_3511 list_59))
	(tail_119 x_3511 (cons_59 x_3510 x_3511))))
(assert (isnil_59 nil_59))
(assert (forall ((x_3513 Int) (x_3514 list_59))
	(iscons_59 (cons_59 x_3513 x_3514))))
(assert (forall ((x_3515 Int) (x_3516 list_59))
	(diseqlist_59 nil_59 (cons_59 x_3515 x_3516))))
(assert (forall ((x_3517 Int) (x_3518 list_59))
	(diseqlist_59 (cons_59 x_3517 x_3518) nil_59)))
(assert (forall ((x_3519 Int) (x_3520 list_59) (x_3521 Int) (x_3522 list_59))
	(=> (diseqInt x_3519 x_3521) (diseqlist_59 (cons_59 x_3519 x_3520) (cons_59 x_3521 x_3522)))))
(assert (forall ((x_3519 Int) (x_3520 list_59) (x_3521 Int) (x_3522 list_59))
	(=> (diseqlist_59 x_3520 x_3522) (diseqlist_59 (cons_59 x_3519 x_3520) (cons_59 x_3521 x_3522)))))
(declare-fun last_6 (Int list_59) Bool)
(assert (forall ((x_3490 Int) (x_3486 Int) (x_3487 list_59) (y_285 Int))
	(=> (last_6 x_3490 (cons_59 x_3486 x_3487)) (last_6 x_3490 (cons_59 y_285 (cons_59 x_3486 x_3487))))))
(assert (forall ((x_3492 Int))
	(last_6 x_3492 (cons_59 x_3492 nil_59))))
(assert (last_6 Z_357 nil_59))
(declare-fun x_3488 (list_59 list_59 list_59) Bool)
(assert (forall ((x_3495 list_59) (z_359 Int) (xs_110 list_59) (y_286 list_59))
	(=> (x_3488 x_3495 xs_110 y_286) (x_3488 (cons_59 z_359 x_3495) (cons_59 z_359 xs_110) y_286))))
(assert (forall ((x_3496 list_59))
	(x_3488 x_3496 nil_59 x_3496)))
(assert (forall ((x_3497 list_59) (x_3498 Int) (x_3499 Int) (xs_111 list_59))
	(=> (and true (diseqInt x_3498 x_3499) (x_3488 x_3497 xs_111 nil_59) (last_6 x_3498 x_3497) (last_6 x_3499 xs_111)) false)))
(check-sat)
